Minimize
  - 51 y_0 - 49 y_1 - 36 y_2 - 51 y_3 - 30 y_4 - 52 y_5 - 35 y_6 - 55 y_7
   - 32 y_8 - 54 y_9 - 21 y_10 - 37 y_11 - 40 y_12 - 14 y_13 - 38 y_14
   - 56 y_15 - 50 y_16 - 35 y_17 - 41 y_18 - 14 y_20 - 48 y_21 - 50 y_22
   - 36 y_23 - 31 y_24 - 18 y_25 - 56 y_26 - 57 y_27 - 55 y_28 - 12 y_29
   - 44 y_30 - 21 y_31 - 30 y_32 - 3 y_33 - 41 y_34 - 38 y_35 - 40 y_36
   - 34 y_37 - 38 y_38 - 49 y_39 - 22 y_40 - 17 y_41 - 33 y_42 - 44 y_43
   - 28 y_44 - 52 y_45 - 7 y_46 - 37 y_47 - 8 y_48 - 15 y_49 + 30 x_0_2
   + 4 x_0_3 + 62 x_0_4 + 42 x_0_5 + 56 x_0_6 + 27 x_0_7 + 63 x_0_8
   + 50 x_0_9 + 29 x_0_11 + 67 x_0_12 + 74 x_0_13 + 48 x_0_14 + 16 x_0_15
   + 61 x_0_16 + 44 x_0_18 + 101 x_0_19 + 84 x_0_20 + 14 x_0_21 + 72 x_0_22
   + 56 x_0_23 + 40 x_0_24 + 66 x_0_25 + 32 x_0_26 + 44 x_0_27 + 16 x_0_28
   + 79 x_0_29 + 21 x_0_30 + 60 x_0_31 + 47 x_0_32 + 97 x_0_33 + 48 x_0_34
   + 38 x_0_35 + 26 x_0_36 + 43 x_0_37 + 21 x_0_39 + 46 x_0_42 + 59 x_0_44
   + 5 x_0_45 + 88 x_0_46 + 71 x_0_47 + 41 x_1_2 + 41 x_1_3 + 65 x_1_7
   + 40 x_1_8 + 86 x_1_9 + 86 x_1_10 + 71 x_1_13 + 24 x_1_14 + 30 x_1_15
   + 94 x_1_16 + 17 x_1_18 + 98 x_1_19 + 31 x_1_23 + 45 x_1_24 + 71 x_1_25
   + 81 x_1_27 + 79 x_1_29 + 52 x_1_30 + 65 x_1_31 + 93 x_1_33 + 76 x_1_34
   + 23 x_1_35 + 27 x_1_36 + 31 x_1_37 + 57 x_1_38 + 56 x_1_39 + 89 x_1_40
   + 87 x_1_41 + 66 x_1_42 + 46 x_1_43 + 86 x_1_46 + 77 x_1_49 + 30 x_2_3
   + 48 x_2_5 + 40 x_2_6 + 44 x_2_7 + 44 x_2_8 + 55 x_2_9 + 47 x_2_10
   + 11 x_2_11 + 55 x_2_12 + 45 x_2_13 + 34 x_2_14 + 41 x_2_15 + 58 x_2_16
   + 22 x_2_17 + 35 x_2_18 + 71 x_2_19 + 56 x_2_20 + 26 x_2_21 + 39 x_2_23
   + 10 x_2_24 + 47 x_2_26 + 55 x_2_27 + 39 x_2_28 + 49 x_2_29 + 31 x_2_31
   + 67 x_2_33 + 38 x_2_34 + 14 x_2_36 + 22 x_2_37 + 31 x_2_39 + 50 x_2_40
   + 19 x_2_43 + 36 x_2_44 + 33 x_2_45 + 58 x_2_46 + 44 x_2_49 + 61 x_3_4
   + 39 x_3_5 + 54 x_3_6 + 24 x_3_7 + 66 x_3_8 + 65 x_3_12 + 75 x_3_13
   + 51 x_3_14 + 19 x_3_15 + 57 x_3_16 + 47 x_3_18 + 69 x_3_22 + 58 x_3_23
   + 40 x_3_24 + 28 x_3_26 + 41 x_3_27 + 19 x_3_28 + 79 x_3_29 + 19 x_3_30
   + 46 x_3_32 + 97 x_3_33 + 45 x_3_34 + 40 x_3_35 + 28 x_3_36 + 31 x_3_38
   + 74 x_3_40 + 78 x_3_41 + 44 x_3_42 + 16 x_3_43 + 88 x_3_46 + 69 x_3_47
   + 90 x_3_48 + 73 x_3_49 + 46 x_4_5 + 11 x_4_6 + 74 x_4_8 + 48 x_4_9
   + 18 x_4_10 + 35 x_4_11 + 21 x_4_12 + 45 x_4_13 + 78 x_4_15 + 39 x_4_16
   + 22 x_4_17 + 74 x_4_18 + 33 x_4_20 + 65 x_4_21 + 41 x_4_22 + 74 x_4_23
   + 30 x_4_25 + 55 x_4_27 + 76 x_4_28 + 42 x_4_30 + 29 x_4_31 + 18 x_4_32
   + 59 x_4_33 + 22 x_4_34 + 63 x_4_35 + 58 x_4_37 + 30 x_4_38 + 18 x_4_40
   + 27 x_4_41 + 17 x_4_42 + 45 x_4_43 + 62 x_4_44 + 17 x_4_47 + 45 x_4_48
   + 33 x_4_49 + 35 x_5_6 + 19 x_5_7 + 92 x_5_8 + 8 x_5_9 + 63 x_5_10
   + 38 x_5_11 + 37 x_5_12 + 82 x_5_13 + 81 x_5_14 + 57 x_5_15 + 104 x_5_19
   + 78 x_5_20 + 54 x_5_21 + 32 x_5_22 + 87 x_5_23 + 55 x_5_24 + 69 x_5_25
   + 16 x_5_26 + 101 x_5_33 + 24 x_5_34 + 70 x_5_35 + 70 x_5_37 + 72 x_5_41
   + 39 x_5_42 + 33 x_5_43 + 39 x_5_45 + 91 x_5_46 + 44 x_5_47 + 89 x_5_48
   + 48 x_6_7 + 78 x_6_8 + 37 x_6_9 + 32 x_6_11 + 15 x_6_12 + 54 x_6_13
   + 72 x_6_15 + 19 x_6_17 + 62 x_6_21 + 76 x_6_23 + 39 x_6_25 + 71 x_6_28
   + 50 x_6_29 + 36 x_6_30 + 20 x_6_32 + 12 x_6_34 + 63 x_6_35 + 54 x_6_36
   + 60 x_6_37 + 40 x_6_39 + 29 x_6_40 + 37 x_6_41 + 16 x_6_42 + 39 x_6_43
   + 67 x_6_44 + 56 x_6_45 + 59 x_6_46 + 15 x_6_47 + 55 x_6_48 + 43 x_6_49
   + 25 x_7_9 + 73 x_7_10 + 85 x_7_13 + 72 x_7_14 + 39 x_7_16 + 69 x_7_18
   + 109 x_7_19 + 40 x_7_21 + 79 x_7_23 + 53 x_7_24 + 73 x_7_25 + 5 x_7_26
   + 18 x_7_27 + 86 x_7_29 + 22 x_7_30 + 49 x_7_32 + 106 x_7_33 + 61 x_7_35
   + 48 x_7_36 + 64 x_7_37 + 33 x_7_38 + 80 x_7_41 + 45 x_7_42 + 79 x_7_44
   + 23 x_7_45 + 96 x_7_46 + 69 x_8_10 + 93 x_8_12 + 43 x_8_13 + 17 x_8_14
   + 65 x_8_15 + 101 x_8_16 + 62 x_8_17 + 68 x_8_20 + 51 x_8_21 + 9 x_8_23
   + 39 x_8_24 + 50 x_8_25 + 90 x_8_26 + 99 x_8_27 + 62 x_8_28 + 52 x_8_29
   + 47 x_8_31 + 58 x_8_32 + 59 x_8_33 + 80 x_8_34 + 38 x_8_36 + 72 x_8_40
   + 63 x_8_42 + 68 x_8_45 + 55 x_8_46 + 91 x_8_47 + 64 x_8_48 + 54 x_8_49
   + 66 x_9_10 + 35 x_9_12 + 87 x_9_13 + 16 x_9_16 + 41 x_9_17 + 87 x_9_18
   + 62 x_9_21 + 94 x_9_23 + 85 x_9_29 + 35 x_9_30 + 49 x_9_32 + 105 x_9_33
   + 26 x_9_34 + 77 x_9_35 + 64 x_9_36 + 77 x_9_37 + 29 x_9_39 + 66 x_9_40
   + 90 x_9_44 + 95 x_9_46 + 92 x_9_48 + 78 x_9_49 + 44 x_10_11
   + 32 x_10_13 + 87 x_10_15 + 56 x_10_16 + 33 x_10_17 + 43 x_10_19
   + 15 x_10_20 + 73 x_10_21 + 71 x_10_23 + 41 x_10_24 + 74 x_10_26
   + 73 x_10_27 + 86 x_10_28 + 25 x_10_29 + 22 x_10_31 + 26 x_10_32
   + 42 x_10_33 + 64 x_10_35 + 60 x_10_36 + 57 x_10_37 + 42 x_10_38
   + 4 x_10_40 + 9 x_10_41 + 29 x_10_42 + 56 x_10_43 + 57 x_10_44
   + 74 x_10_45 + 33 x_10_46 + 31 x_10_47 + 45 x_11_14 + 43 x_11_15
   + 14 x_11_17 + 45 x_11_18 + 75 x_11_19 + 55 x_11_20 + 30 x_11_21
   + 39 x_11_26 + 52 x_11_29 + 14 x_11_30 + 33 x_11_31 + 71 x_11_33
   + 33 x_11_37 + 47 x_11_40 + 50 x_11_41 + 18 x_11_42 + 63 x_11_48
   + 46 x_11_49 + 66 x_12_13 + 88 x_12_14 + 84 x_12_15 + 33 x_12_17
   + 80 x_12_19 + 52 x_12_20 + 74 x_12_21 + 91 x_12_23 + 55 x_12_24
   + 52 x_12_26 + 45 x_12_27 + 83 x_12_28 + 62 x_12_29 + 50 x_12_31
   + 35 x_12_32 + 78 x_12_35 + 38 x_12_38 + 36 x_12_40 + 46 x_12_41
   + 31 x_12_42 + 51 x_12_43 + 66 x_12_45 + 70 x_12_46 + 54 x_12_49
   + 82 x_13_16 + 46 x_13_17 + 56 x_13_18 + 26 x_13_20 + 69 x_13_21
   + 86 x_13_22 + 15 x_13_25 + 87 x_13_26 + 91 x_13_27 + 82 x_13_28
   + 10 x_13_29 + 18 x_13_31 + 38 x_13_32 + 23 x_13_33 + 62 x_13_34
   + 49 x_13_35 + 52 x_13_36 + 41 x_13_37 + 53 x_13_38 + 73 x_13_39
   + 35 x_13_40 + 27 x_13_41 + 62 x_13_43 + 77 x_13_45 + 14 x_13_46
   + 14 x_13_49 + 92 x_14_16 + 7 x_14_18 + 76 x_14_19 + 35 x_14_21
   + 8 x_14_23 + 33 x_14_24 + 53 x_14_25 + 76 x_14_26 + 87 x_14_27
   + 46 x_14_28 + 59 x_14_29 + 54 x_14_30 + 48 x_14_31 + 53 x_14_32
   + 70 x_14_33 + 11 x_14_35 + 24 x_14_36 + 13 x_14_37 + 53 x_14_38
   + 61 x_14_39 + 74 x_14_40 + 70 x_14_41 + 48 x_14_43 + 20 x_14_44
   + 64 x_14_46 + 87 x_14_47 + 72 x_14_48 + 58 x_14_49 + 76 x_15_16
   + 56 x_15_17 + 42 x_15_18 + 111 x_15_19 + 97 x_15_20 + 88 x_15_22
   + 56 x_15_23 + 50 x_15_24 + 45 x_15_26 + 2 x_15_28 + 89 x_15_29
   + 72 x_15_31 + 107 x_15_33 + 64 x_15_34 + 40 x_15_35 + 47 x_15_37
   + 48 x_15_38 + 37 x_15_39 + 90 x_15_40 + 33 x_15_43 + 64 x_15_44
   + 18 x_15_45 + 87 x_15_47 + 102 x_15_48 + 71 x_16_20 + 71 x_16_21
   + 12 x_16_22 + 97 x_16_23 + 62 x_16_24 + 67 x_16_25 + 26 x_16_27
   + 76 x_16_28 + 79 x_16_29 + 42 x_16_30 + 64 x_16_31 + 45 x_16_32
   + 98 x_16_33 + 21 x_16_34 + 82 x_16_35 + 70 x_16_36 + 40 x_16_39
   + 56 x_16_40 + 65 x_16_41 + 40 x_16_42 + 91 x_16_44 + 58 x_16_45
   + 88 x_16_46 + 83 x_16_48 + 71 x_16_49 + 56 x_17_18 + 69 x_17_19
   + 46 x_17_20 + 44 x_17_21 + 47 x_17_22 + 59 x_17_23 + 33 x_17_25
   + 55 x_17_28 + 22 x_17_30 + 28 x_17_31 + 9 x_17_32 + 18 x_17_34
   + 35 x_17_36 + 42 x_17_37 + 29 x_17_39 + 40 x_17_41 + 5 x_17_42
   + 51 x_17_44 + 41 x_17_45 + 56 x_17_46 + 39 x_17_49 + 78 x_18_20
   + 31 x_18_21 + 102 x_18_22 + 14 x_18_23 + 35 x_18_24 + 74 x_18_26
   + 40 x_18_28 + 52 x_18_30 + 56 x_18_32 + 77 x_18_33 + 11 x_18_35
   + 23 x_18_36 + 53 x_18_38 + 78 x_18_40 + 75 x_18_41 + 59 x_18_42
   + 70 x_18_46 + 89 x_18_47 + 77 x_18_48 + 63 x_18_49 + 96 x_19_21
   + 100 x_19_22 + 72 x_19_23 + 36 x_19_25 + 111 x_19_26 + 113 x_19_27
   + 109 x_19_28 + 5 x_19_33 + 81 x_19_34 + 67 x_19_37 + 77 x_19_38
   + 97 x_19_39 + 44 x_19_40 + 34 x_19_41 + 65 x_19_42 + 104 x_19_45
   + 73 x_19_47 + 16 x_19_48 + 30 x_19_49 + 82 x_20_21 + 72 x_20_22
   + 71 x_20_23 + 20 x_20_25 + 88 x_20_26 + 87 x_20_27 + 95 x_20_28
   + 17 x_20_29 + 68 x_20_30 + 26 x_20_31 + 29 x_20_33 + 68 x_20_35
   + 61 x_20_37 + 55 x_20_38 + 75 x_20_39 + 16 x_20_40 + 6 x_20_41
   + 42 x_20_42 + 56 x_20_44 + 86 x_20_45 + 21 x_20_46 + 45 x_20_47
   + 13 x_20_48 + 14 x_20_49 + 82 x_21_22 + 35 x_21_24 + 63 x_21_25
   + 57 x_21_27 + 13 x_21_28 + 29 x_21_30 + 57 x_21_31 + 55 x_21_34
   + 26 x_21_35 + 32 x_21_37 + 32 x_21_39 + 76 x_21_40 + 77 x_21_41
   + 48 x_21_42 + 49 x_21_44 + 87 x_21_48 + 106 x_22_23 + 70 x_22_24
   + 48 x_22_26 + 37 x_22_27 + 81 x_22_29 + 69 x_22_31 + 99 x_22_33
   + 29 x_22_34 + 80 x_22_36 + 89 x_22_37 + 66 x_22_41 + 46 x_22_42
   + 58 x_22_43 + 98 x_22_44 + 69 x_22_45 + 90 x_22_46 + 74 x_22_49
   + 52 x_23_25 + 48 x_23_31 + 57 x_23_32 + 66 x_23_33 + 18 x_23_35
   + 31 x_23_36 + 17 x_23_37 + 59 x_23_38 + 68 x_23_39 + 70 x_23_41
   + 61 x_23_42 + 55 x_23_43 + 16 x_23_44 + 61 x_23_45 + 61 x_23_46
   + 90 x_23_47 + 69 x_23_48 + 57 x_23_49 + 28 x_24_25 + 56 x_24_26
   + 48 x_24_28 + 40 x_24_29 + 31 x_24_30 + 21 x_24_32 + 58 x_24_33
   + 41 x_24_34 + 24 x_24_35 + 20 x_24_36 + 24 x_24_38 + 44 x_24_40
   + 43 x_24_41 + 25 x_24_42 + 29 x_24_44 + 48 x_24_46 + 54 x_24_47
   + 52 x_24_48 + 75 x_25_26 + 78 x_25_27 + 76 x_25_28 + 13 x_25_29
   + 53 x_25_30 + 24 x_25_32 + 47 x_25_34 + 48 x_25_35 + 47 x_25_36
   + 41 x_25_37 + 41 x_25_38 + 23 x_25_40 + 17 x_25_41 + 30 x_25_42
   + 38 x_25_44 + 69 x_25_45 + 23 x_25_46 + 47 x_25_47 + 24 x_25_48
   + 7 x_25_49 + 13 x_26_27 + 45 x_26_28 + 88 x_26_29 + 51 x_26_32
   + 108 x_26_33 + 65 x_26_35 + 52 x_26_36 + 68 x_26_37 + 35 x_26_38
   + 75 x_26_40 + 46 x_26_42 + 29 x_26_43 + 83 x_26_44 + 27 x_26_45
   + 98 x_26_46 + 58 x_26_47 + 97 x_26_48 + 81 x_26_49 + 58 x_27_28
   + 91 x_27_29 + 33 x_27_30 + 33 x_27_34 + 75 x_27_35 + 63 x_27_36
   + 77 x_27_37 + 39 x_27_38 + 26 x_27_39 + 73 x_27_40 + 81 x_27_41
   + 91 x_27_44 + 100 x_27_46 + 52 x_27_47 + 98 x_27_48 + 83 x_27_49
   + 36 x_28_30 + 60 x_28_32 + 105 x_28_33 + 64 x_28_34 + 38 x_28_35
   + 45 x_28_37 + 47 x_28_38 + 36 x_28_39 + 90 x_28_41 + 32 x_28_43
   + 61 x_28_44 + 19 x_28_45 + 96 x_28_46 + 86 x_28_47 + 100 x_28_48
   + 38 x_29_32 + 60 x_29_34 + 57 x_29_35 + 48 x_29_37 + 54 x_29_38
   + 28 x_29_40 + 18 x_29_41 + 43 x_29_42 + 64 x_29_43 + 41 x_29_44
   + 10 x_29_46 + 56 x_29_47 + 13 x_29_48 + 8 x_29_49 + 47 x_30_31
   + 30 x_30_32 + 85 x_30_33 + 27 x_30_34 + 30 x_30_36 + 13 x_30_38
   + 9 x_30_39 + 57 x_30_40 + 62 x_30_41 + 27 x_30_42 + 6 x_30_43
   + 20 x_30_45 + 75 x_30_46 + 50 x_30_47 + 20 x_31_32 + 39 x_31_33
   + 44 x_31_34 + 41 x_31_36 + 35 x_31_38 + 55 x_31_39 + 26 x_31_40
   + 22 x_31_41 + 45 x_31_43 + 35 x_31_44 + 62 x_31_45 + 30 x_31_48
   + 13 x_31_49 + 58 x_32_33 + 24 x_32_34 + 45 x_32_35 + 17 x_32_38
   + 38 x_32_39 + 28 x_32_40 + 32 x_32_41 + 6 x_32_42 + 31 x_32_43
   + 47 x_32_44 + 47 x_32_46 + 34 x_32_47 + 47 x_32_48 + 30 x_32_49
   + 79 x_33_34 + 71 x_33_35 + 62 x_33_37 + 74 x_33_38 + 94 x_33_39
   + 44 x_33_40 + 34 x_33_41 + 63 x_33_42 + 84 x_33_43 + 51 x_33_44
   + 10 x_33_46 + 73 x_33_47 + 27 x_33_49 + 62 x_34_35 + 51 x_34_36
   + 60 x_34_37 + 30 x_34_39 + 48 x_34_41 + 18 x_34_42 + 32 x_34_43
   + 70 x_34_44 + 69 x_34_46 + 24 x_34_47 + 66 x_34_48 + 52 x_34_49
   + 43 x_35_38 + 50 x_35_39 + 67 x_35_40 + 65 x_35_41 + 24 x_35_44
   + 43 x_35_45 + 63 x_35_46 + 78 x_35_47 + 69 x_35_48 + 54 x_35_49
   + 17 x_36_37 + 63 x_36_40 + 63 x_36_41 + 39 x_36_42 + 24 x_36_43
   + 33 x_36_44 + 71 x_36_48 + 54 x_36_49 + 41 x_37_38 + 52 x_37_39
   + 61 x_37_40 + 58 x_37_41 + 44 x_37_42 + 47 x_37_45 + 55 x_37_46
   + 74 x_37_47 + 61 x_37_48 + 47 x_37_49 + 49 x_38_41 + 15 x_38_43
   + 53 x_38_44 + 33 x_38_45 + 63 x_38_46 + 40 x_38_47 + 63 x_38_48
   + 64 x_39_40 + 34 x_39_42 + 13 x_39_43 + 84 x_39_46 + 53 x_39_47
   + 84 x_39_48 + 68 x_39_49 + 10 x_40_41 + 30 x_40_42 + 59 x_40_43
   + 60 x_40_44 + 28 x_40_48 + 22 x_40_49 + 62 x_41_43 + 25 x_41_46
   + 18 x_41_48 + 13 x_41_49 + 28 x_42_43 + 52 x_42_44 + 53 x_42_46
   + 51 x_42_48 + 36 x_42_49 + 54 x_43_44 + 18 x_43_45 + 75 x_43_48
   + 58 x_43_49 + 64 x_44_45 + 53 x_44_48 + 90 x_45_46 + 70 x_45_47
   + 93 x_45_48 + 76 x_45_49 + 64 x_46_47 + 10 x_46_48 + 17 x_46_49
   + 57 x_47_48 + 1755 Constant
Subject To
 c_0: y_15 = 1
 c_1_0: y_0 >= 1
 c_1_1: y_1 >= 1
 c_1_2: y_2 >= 1
 c_1_3: y_3 >= 1
 c_1_4: y_4 >= 1
 c_1_5: y_5 >= 1
 c_1_6: y_6 >= 1
 c_1_7: y_7 >= 1
 c_1_8: y_8 >= 1
 c_1_9: y_9 >= 1
 c_1_10: y_10 >= 1
 c_1_11: y_11 >= 1
 c_1_12: y_12 >= 1
 c_1_13: y_13 >= 1
 c_1_14: y_14 >= 1
 c_1_15: y_15 >= 1
 c_1_16: y_16 >= 1
 c_1_17: y_17 >= 1
 c_1_18: y_18 >= 1
 c_1_19: y_19 >= 1
 c_1_20: y_20 >= 1
 c_1_21: y_21 >= 1
 c_1_22: y_22 >= 1
 c_1_23: y_23 >= 1
 c_1_24: y_24 >= 1
 c_1_25: y_25 >= 1
 c_1_26: y_26 >= 1
 c_1_27: y_27 >= 1
 c_1_28: y_28 >= 1
 c_1_29: y_29 >= 1
 c_1_30: y_30 >= 1
 c_1_31: y_31 >= 1
 c_1_32: y_32 >= 1
 c_1_33: y_33 >= 1
 c_1_34: y_34 >= 1
 c_1_35: y_35 >= 1
 c_1_36: y_36 >= 1
 c_1_37: y_37 >= 1
 c_1_38: y_38 >= 1
 c_1_39: y_39 >= 1
 c_1_40: y_40 >= 1
 c_1_41: y_41 >= 1
 c_1_42: y_42 >= 1
 c_1_43: y_43 >= 1
 c_1_44: y_44 >= 1
 c_1_45: y_45 >= 1
 c_1_46: y_46 >= 1
 c_1_47: y_47 >= 1
 c_1_48: y_48 >= 1
 c_1_49: y_49 >= 1
 c_2_0: - 2 y_0 + x_0_2 + x_0_3 + x_0_4 + x_0_5 + x_0_6 + x_0_7 + x_0_8
   + x_0_9 + x_0_11 + x_0_12 + x_0_13 + x_0_14 + x_0_15 + x_0_16 + x_0_18
   + x_0_19 + x_0_20 + x_0_21 + x_0_22 + x_0_23 + x_0_24 + x_0_25 + x_0_26
   + x_0_27 + x_0_28 + x_0_29 + x_0_30 + x_0_31 + x_0_32 + x_0_33 + x_0_34
   + x_0_35 + x_0_36 + x_0_37 + x_0_39 + x_0_42 + x_0_44 + x_0_45 + x_0_46
   + x_0_47 = 0
 c_2_1: - 2 y_1 + x_1_2 + x_1_3 + x_1_7 + x_1_8 + x_1_9 + x_1_10 + x_1_13
   + x_1_14 + x_1_15 + x_1_16 + x_1_18 + x_1_19 + x_1_23 + x_1_24 + x_1_25
   + x_1_27 + x_1_29 + x_1_30 + x_1_31 + x_1_33 + x_1_34 + x_1_35 + x_1_36
   + x_1_37 + x_1_38 + x_1_39 + x_1_40 + x_1_41 + x_1_42 + x_1_43 + x_1_46
   + x_1_49 = 0
 c_2_2: - 2 y_2 + x_0_2 + x_1_2 + x_2_3 + x_2_5 + x_2_6 + x_2_7 + x_2_8
   + x_2_9 + x_2_10 + x_2_11 + x_2_12 + x_2_13 + x_2_14 + x_2_15 + x_2_16
   + x_2_17 + x_2_18 + x_2_19 + x_2_20 + x_2_21 + x_2_23 + x_2_24 + x_2_26
   + x_2_27 + x_2_28 + x_2_29 + x_2_31 + x_2_33 + x_2_34 + x_2_36 + x_2_37
   + x_2_39 + x_2_40 + x_2_43 + x_2_44 + x_2_45 + x_2_46 + x_2_49 = 0
 c_2_3: - 2 y_3 + x_0_3 + x_1_3 + x_2_3 + x_3_4 + x_3_5 + x_3_6 + x_3_7
   + x_3_8 + x_3_12 + x_3_13 + x_3_14 + x_3_15 + x_3_16 + x_3_18 + x_3_22
   + x_3_23 + x_3_24 + x_3_26 + x_3_27 + x_3_28 + x_3_29 + x_3_30 + x_3_32
   + x_3_33 + x_3_34 + x_3_35 + x_3_36 + x_3_38 + x_3_40 + x_3_41 + x_3_42
   + x_3_43 + x_3_46 + x_3_47 + x_3_48 + x_3_49 = 0
 c_2_4: - 2 y_4 + x_0_4 + x_3_4 + x_4_5 + x_4_6 + x_4_8 + x_4_9 + x_4_10
   + x_4_11 + x_4_12 + x_4_13 + x_4_15 + x_4_16 + x_4_17 + x_4_18 + x_4_20
   + x_4_21 + x_4_22 + x_4_23 + x_4_25 + x_4_27 + x_4_28 + x_4_30 + x_4_31
   + x_4_32 + x_4_33 + x_4_34 + x_4_35 + x_4_37 + x_4_38 + x_4_40 + x_4_41
   + x_4_42 + x_4_43 + x_4_44 + x_4_47 + x_4_48 + x_4_49 = 0
 c_2_5: - 2 y_5 + x_0_5 + x_2_5 + x_3_5 + x_4_5 + x_5_6 + x_5_7 + x_5_8
   + x_5_9 + x_5_10 + x_5_11 + x_5_12 + x_5_13 + x_5_14 + x_5_15 + x_5_19
   + x_5_20 + x_5_21 + x_5_22 + x_5_23 + x_5_24 + x_5_25 + x_5_26 + x_5_33
   + x_5_34 + x_5_35 + x_5_37 + x_5_41 + x_5_42 + x_5_43 + x_5_45 + x_5_46
   + x_5_47 + x_5_48 = 0
 c_2_6: - 2 y_6 + x_0_6 + x_2_6 + x_3_6 + x_4_6 + x_5_6 + x_6_7 + x_6_8
   + x_6_9 + x_6_11 + x_6_12 + x_6_13 + x_6_15 + x_6_17 + x_6_21 + x_6_23
   + x_6_25 + x_6_28 + x_6_29 + x_6_30 + x_6_32 + x_6_34 + x_6_35 + x_6_36
   + x_6_37 + x_6_39 + x_6_40 + x_6_41 + x_6_42 + x_6_43 + x_6_44 + x_6_45
   + x_6_46 + x_6_47 + x_6_48 + x_6_49 = 0
 c_2_7: - 2 y_7 + x_0_7 + x_1_7 + x_2_7 + x_3_7 + x_5_7 + x_6_7 + x_7_9
   + x_7_10 + x_7_13 + x_7_14 + x_7_16 + x_7_18 + x_7_19 + x_7_21 + x_7_23
   + x_7_24 + x_7_25 + x_7_26 + x_7_27 + x_7_29 + x_7_30 + x_7_32 + x_7_33
   + x_7_35 + x_7_36 + x_7_37 + x_7_38 + x_7_41 + x_7_42 + x_7_44 + x_7_45
   + x_7_46 = 0
 c_2_8: - 2 y_8 + x_0_8 + x_1_8 + x_2_8 + x_3_8 + x_4_8 + x_5_8 + x_6_8
   + x_8_10 + x_8_12 + x_8_13 + x_8_14 + x_8_15 + x_8_16 + x_8_17 + x_8_20
   + x_8_21 + x_8_23 + x_8_24 + x_8_25 + x_8_26 + x_8_27 + x_8_28 + x_8_29
   + x_8_31 + x_8_32 + x_8_33 + x_8_34 + x_8_36 + x_8_40 + x_8_42 + x_8_45
   + x_8_46 + x_8_47 + x_8_48 + x_8_49 = 0
 c_2_9: - 2 y_9 + x_0_9 + x_1_9 + x_2_9 + x_4_9 + x_5_9 + x_6_9 + x_7_9
   + x_9_10 + x_9_12 + x_9_13 + x_9_16 + x_9_17 + x_9_18 + x_9_21 + x_9_23
   + x_9_29 + x_9_30 + x_9_32 + x_9_33 + x_9_34 + x_9_35 + x_9_36 + x_9_37
   + x_9_39 + x_9_40 + x_9_44 + x_9_46 + x_9_48 + x_9_49 = 0
 c_2_10: - 2 y_10 + x_1_10 + x_2_10 + x_4_10 + x_5_10 + x_7_10 + x_8_10
   + x_9_10 + x_10_11 + x_10_13 + x_10_15 + x_10_16 + x_10_17 + x_10_19
   + x_10_20 + x_10_21 + x_10_23 + x_10_24 + x_10_26 + x_10_27 + x_10_28
   + x_10_29 + x_10_31 + x_10_32 + x_10_33 + x_10_35 + x_10_36 + x_10_37
   + x_10_38 + x_10_40 + x_10_41 + x_10_42 + x_10_43 + x_10_44 + x_10_45
   + x_10_46 + x_10_47 = 0
 c_2_11: - 2 y_11 + x_0_11 + x_2_11 + x_4_11 + x_5_11 + x_6_11 + x_10_11
   + x_11_14 + x_11_15 + x_11_17 + x_11_18 + x_11_19 + x_11_20 + x_11_21
   + x_11_26 + x_11_29 + x_11_30 + x_11_31 + x_11_33 + x_11_37 + x_11_40
   + x_11_41 + x_11_42 + x_11_48 + x_11_49 = 0
 c_2_12: - 2 y_12 + x_0_12 + x_2_12 + x_3_12 + x_4_12 + x_5_12 + x_6_12
   + x_8_12 + x_9_12 + x_12_13 + x_12_14 + x_12_15 + x_12_17 + x_12_19
   + x_12_20 + x_12_21 + x_12_23 + x_12_24 + x_12_26 + x_12_27 + x_12_28
   + x_12_29 + x_12_31 + x_12_32 + x_12_35 + x_12_38 + x_12_40 + x_12_41
   + x_12_42 + x_12_43 + x_12_45 + x_12_46 + x_12_49 = 0
 c_2_13: - 2 y_13 + x_0_13 + x_1_13 + x_2_13 + x_3_13 + x_4_13 + x_5_13
   + x_6_13 + x_7_13 + x_8_13 + x_9_13 + x_10_13 + x_12_13 + x_13_16
   + x_13_17 + x_13_18 + x_13_20 + x_13_21 + x_13_22 + x_13_25 + x_13_26
   + x_13_27 + x_13_28 + x_13_29 + x_13_31 + x_13_32 + x_13_33 + x_13_34
   + x_13_35 + x_13_36 + x_13_37 + x_13_38 + x_13_39 + x_13_40 + x_13_41
   + x_13_43 + x_13_45 + x_13_46 + x_13_49 = 0
 c_2_14: - 2 y_14 + x_0_14 + x_1_14 + x_2_14 + x_3_14 + x_5_14 + x_7_14
   + x_8_14 + x_11_14 + x_12_14 + x_14_16 + x_14_18 + x_14_19 + x_14_21
   + x_14_23 + x_14_24 + x_14_25 + x_14_26 + x_14_27 + x_14_28 + x_14_29
   + x_14_30 + x_14_31 + x_14_32 + x_14_33 + x_14_35 + x_14_36 + x_14_37
   + x_14_38 + x_14_39 + x_14_40 + x_14_41 + x_14_43 + x_14_44 + x_14_46
   + x_14_47 + x_14_48 + x_14_49 = 0
 c_2_15: - 2 y_15 + x_0_15 + x_1_15 + x_2_15 + x_3_15 + x_4_15 + x_5_15
   + x_6_15 + x_8_15 + x_10_15 + x_11_15 + x_12_15 + x_15_16 + x_15_17
   + x_15_18 + x_15_19 + x_15_20 + x_15_22 + x_15_23 + x_15_24 + x_15_26
   + x_15_28 + x_15_29 + x_15_31 + x_15_33 + x_15_34 + x_15_35 + x_15_37
   + x_15_38 + x_15_39 + x_15_40 + x_15_43 + x_15_44 + x_15_45 + x_15_47
   + x_15_48 = 0
 c_2_16: - 2 y_16 + x_0_16 + x_1_16 + x_2_16 + x_3_16 + x_4_16 + x_7_16
   + x_8_16 + x_9_16 + x_10_16 + x_13_16 + x_14_16 + x_15_16 + x_16_20
   + x_16_21 + x_16_22 + x_16_23 + x_16_24 + x_16_25 + x_16_27 + x_16_28
   + x_16_29 + x_16_30 + x_16_31 + x_16_32 + x_16_33 + x_16_34 + x_16_35
   + x_16_36 + x_16_39 + x_16_40 + x_16_41 + x_16_42 + x_16_44 + x_16_45
   + x_16_46 + x_16_48 + x_16_49 = 0
 c_2_17: - 2 y_17 + x_2_17 + x_4_17 + x_6_17 + x_8_17 + x_9_17 + x_10_17
   + x_11_17 + x_12_17 + x_13_17 + x_15_17 + x_17_18 + x_17_19 + x_17_20
   + x_17_21 + x_17_22 + x_17_23 + x_17_25 + x_17_28 + x_17_30 + x_17_31
   + x_17_32 + x_17_34 + x_17_36 + x_17_37 + x_17_39 + x_17_41 + x_17_42
   + x_17_44 + x_17_45 + x_17_46 + x_17_49 = 0
 c_2_18: - 2 y_18 + x_0_18 + x_1_18 + x_2_18 + x_3_18 + x_4_18 + x_7_18
   + x_9_18 + x_11_18 + x_13_18 + x_14_18 + x_15_18 + x_17_18 + x_18_20
   + x_18_21 + x_18_22 + x_18_23 + x_18_24 + x_18_26 + x_18_28 + x_18_30
   + x_18_32 + x_18_33 + x_18_35 + x_18_36 + x_18_38 + x_18_40 + x_18_41
   + x_18_42 + x_18_46 + x_18_47 + x_18_48 + x_18_49 = 0
 c_2_19: - 2 y_19 + x_0_19 + x_1_19 + x_2_19 + x_5_19 + x_7_19 + x_10_19
   + x_11_19 + x_12_19 + x_14_19 + x_15_19 + x_17_19 + x_19_21 + x_19_22
   + x_19_23 + x_19_25 + x_19_26 + x_19_27 + x_19_28 + x_19_33 + x_19_34
   + x_19_37 + x_19_38 + x_19_39 + x_19_40 + x_19_41 + x_19_42 + x_19_45
   + x_19_47 + x_19_48 + x_19_49 = 0
 c_2_20: - 2 y_20 + x_0_20 + x_2_20 + x_4_20 + x_5_20 + x_8_20 + x_10_20
   + x_11_20 + x_12_20 + x_13_20 + x_15_20 + x_16_20 + x_17_20 + x_18_20
   + x_20_21 + x_20_22 + x_20_23 + x_20_25 + x_20_26 + x_20_27 + x_20_28
   + x_20_29 + x_20_30 + x_20_31 + x_20_33 + x_20_35 + x_20_37 + x_20_38
   + x_20_39 + x_20_40 + x_20_41 + x_20_42 + x_20_44 + x_20_45 + x_20_46
   + x_20_47 + x_20_48 + x_20_49 = 0
 c_2_21: - 2 y_21 + x_0_21 + x_2_21 + x_4_21 + x_5_21 + x_6_21 + x_7_21
   + x_8_21 + x_9_21 + x_10_21 + x_11_21 + x_12_21 + x_13_21 + x_14_21
   + x_16_21 + x_17_21 + x_18_21 + x_19_21 + x_20_21 + x_21_22 + x_21_24
   + x_21_25 + x_21_27 + x_21_28 + x_21_30 + x_21_31 + x_21_34 + x_21_35
   + x_21_37 + x_21_39 + x_21_40 + x_21_41 + x_21_42 + x_21_44 + x_21_48
   = 0
 c_2_22: - 2 y_22 + x_0_22 + x_3_22 + x_4_22 + x_5_22 + x_13_22 + x_15_22
   + x_16_22 + x_17_22 + x_18_22 + x_19_22 + x_20_22 + x_21_22 + x_22_23
   + x_22_24 + x_22_26 + x_22_27 + x_22_29 + x_22_31 + x_22_33 + x_22_34
   + x_22_36 + x_22_37 + x_22_41 + x_22_42 + x_22_43 + x_22_44 + x_22_45
   + x_22_46 + x_22_49 = 0
 c_2_23: - 2 y_23 + x_0_23 + x_1_23 + x_2_23 + x_3_23 + x_4_23 + x_5_23
   + x_6_23 + x_7_23 + x_8_23 + x_9_23 + x_10_23 + x_12_23 + x_14_23
   + x_15_23 + x_16_23 + x_17_23 + x_18_23 + x_19_23 + x_20_23 + x_22_23
   + x_23_25 + x_23_31 + x_23_32 + x_23_33 + x_23_35 + x_23_36 + x_23_37
   + x_23_38 + x_23_39 + x_23_41 + x_23_42 + x_23_43 + x_23_44 + x_23_45
   + x_23_46 + x_23_47 + x_23_48 + x_23_49 = 0
 c_2_24: - 2 y_24 + x_0_24 + x_1_24 + x_2_24 + x_3_24 + x_5_24 + x_7_24
   + x_8_24 + x_10_24 + x_12_24 + x_14_24 + x_15_24 + x_16_24 + x_18_24
   + x_21_24 + x_22_24 + x_24_25 + x_24_26 + x_24_28 + x_24_29 + x_24_30
   + x_24_32 + x_24_33 + x_24_34 + x_24_35 + x_24_36 + x_24_38 + x_24_40
   + x_24_41 + x_24_42 + x_24_44 + x_24_46 + x_24_47 + x_24_48 = 0
 c_2_25: - 2 y_25 + x_0_25 + x_1_25 + x_4_25 + x_5_25 + x_6_25 + x_7_25
   + x_8_25 + x_13_25 + x_14_25 + x_16_25 + x_17_25 + x_19_25 + x_20_25
   + x_21_25 + x_23_25 + x_24_25 + x_25_26 + x_25_27 + x_25_28 + x_25_29
   + x_25_30 + x_25_32 + x_25_34 + x_25_35 + x_25_36 + x_25_37 + x_25_38
   + x_25_40 + x_25_41 + x_25_42 + x_25_44 + x_25_45 + x_25_46 + x_25_47
   + x_25_48 + x_25_49 = 0
 c_2_26: - 2 y_26 + x_0_26 + x_2_26 + x_3_26 + x_5_26 + x_7_26 + x_8_26
   + x_10_26 + x_11_26 + x_12_26 + x_13_26 + x_14_26 + x_15_26 + x_18_26
   + x_19_26 + x_20_26 + x_22_26 + x_24_26 + x_25_26 + x_26_27 + x_26_28
   + x_26_29 + x_26_32 + x_26_33 + x_26_35 + x_26_36 + x_26_37 + x_26_38
   + x_26_40 + x_26_42 + x_26_43 + x_26_44 + x_26_45 + x_26_46 + x_26_47
   + x_26_48 + x_26_49 = 0
 c_2_27: - 2 y_27 + x_0_27 + x_1_27 + x_2_27 + x_3_27 + x_4_27 + x_7_27
   + x_8_27 + x_10_27 + x_12_27 + x_13_27 + x_14_27 + x_16_27 + x_19_27
   + x_20_27 + x_21_27 + x_22_27 + x_25_27 + x_26_27 + x_27_28 + x_27_29
   + x_27_30 + x_27_34 + x_27_35 + x_27_36 + x_27_37 + x_27_38 + x_27_39
   + x_27_40 + x_27_41 + x_27_44 + x_27_46 + x_27_47 + x_27_48 + x_27_49
   = 0
 c_2_28: - 2 y_28 + x_0_28 + x_2_28 + x_3_28 + x_4_28 + x_6_28 + x_8_28
   + x_10_28 + x_12_28 + x_13_28 + x_14_28 + x_15_28 + x_16_28 + x_17_28
   + x_18_28 + x_19_28 + x_20_28 + x_21_28 + x_24_28 + x_25_28 + x_26_28
   + x_27_28 + x_28_30 + x_28_32 + x_28_33 + x_28_34 + x_28_35 + x_28_37
   + x_28_38 + x_28_39 + x_28_41 + x_28_43 + x_28_44 + x_28_45 + x_28_46
   + x_28_47 + x_28_48 = 0
 c_2_29: - 2 y_29 + x_0_29 + x_1_29 + x_2_29 + x_3_29 + x_6_29 + x_7_29
   + x_8_29 + x_9_29 + x_10_29 + x_11_29 + x_12_29 + x_13_29 + x_14_29
   + x_15_29 + x_16_29 + x_20_29 + x_22_29 + x_24_29 + x_25_29 + x_26_29
   + x_27_29 + x_29_32 + x_29_34 + x_29_35 + x_29_37 + x_29_38 + x_29_40
   + x_29_41 + x_29_42 + x_29_43 + x_29_44 + x_29_46 + x_29_47 + x_29_48
   + x_29_49 = 0
 c_2_30: - 2 y_30 + x_0_30 + x_1_30 + x_3_30 + x_4_30 + x_6_30 + x_7_30
   + x_9_30 + x_11_30 + x_14_30 + x_16_30 + x_17_30 + x_18_30 + x_20_30
   + x_21_30 + x_24_30 + x_25_30 + x_27_30 + x_28_30 + x_30_31 + x_30_32
   + x_30_33 + x_30_34 + x_30_36 + x_30_38 + x_30_39 + x_30_40 + x_30_41
   + x_30_42 + x_30_43 + x_30_45 + x_30_46 + x_30_47 = 0
 c_2_31: - 2 y_31 + x_0_31 + x_1_31 + x_2_31 + x_4_31 + x_8_31 + x_10_31
   + x_11_31 + x_12_31 + x_13_31 + x_14_31 + x_15_31 + x_16_31 + x_17_31
   + x_20_31 + x_21_31 + x_22_31 + x_23_31 + x_30_31 + x_31_32 + x_31_33
   + x_31_34 + x_31_36 + x_31_38 + x_31_39 + x_31_40 + x_31_41 + x_31_43
   + x_31_44 + x_31_45 + x_31_48 + x_31_49 = 0
 c_2_32: - 2 y_32 + x_0_32 + x_3_32 + x_4_32 + x_6_32 + x_7_32 + x_8_32
   + x_9_32 + x_10_32 + x_12_32 + x_13_32 + x_14_32 + x_16_32 + x_17_32
   + x_18_32 + x_23_32 + x_24_32 + x_25_32 + x_26_32 + x_28_32 + x_29_32
   + x_30_32 + x_31_32 + x_32_33 + x_32_34 + x_32_35 + x_32_38 + x_32_39
   + x_32_40 + x_32_41 + x_32_42 + x_32_43 + x_32_44 + x_32_46 + x_32_47
   + x_32_48 + x_32_49 = 0
 c_2_33: - 2 y_33 + x_0_33 + x_1_33 + x_2_33 + x_3_33 + x_4_33 + x_5_33
   + x_7_33 + x_8_33 + x_9_33 + x_10_33 + x_11_33 + x_13_33 + x_14_33
   + x_15_33 + x_16_33 + x_18_33 + x_19_33 + x_20_33 + x_22_33 + x_23_33
   + x_24_33 + x_26_33 + x_28_33 + x_30_33 + x_31_33 + x_32_33 + x_33_34
   + x_33_35 + x_33_37 + x_33_38 + x_33_39 + x_33_40 + x_33_41 + x_33_42
   + x_33_43 + x_33_44 + x_33_46 + x_33_47 + x_33_49 = 0
 c_2_34: - 2 y_34 + x_0_34 + x_1_34 + x_2_34 + x_3_34 + x_4_34 + x_5_34
   + x_6_34 + x_8_34 + x_9_34 + x_13_34 + x_15_34 + x_16_34 + x_17_34
   + x_19_34 + x_21_34 + x_22_34 + x_24_34 + x_25_34 + x_27_34 + x_28_34
   + x_29_34 + x_30_34 + x_31_34 + x_32_34 + x_33_34 + x_34_35 + x_34_36
   + x_34_37 + x_34_39 + x_34_41 + x_34_42 + x_34_43 + x_34_44 + x_34_46
   + x_34_47 + x_34_48 + x_34_49 = 0
 c_2_35: - 2 y_35 + x_0_35 + x_1_35 + x_3_35 + x_4_35 + x_5_35 + x_6_35
   + x_7_35 + x_9_35 + x_10_35 + x_12_35 + x_13_35 + x_14_35 + x_15_35
   + x_16_35 + x_18_35 + x_20_35 + x_21_35 + x_23_35 + x_24_35 + x_25_35
   + x_26_35 + x_27_35 + x_28_35 + x_29_35 + x_32_35 + x_33_35 + x_34_35
   + x_35_38 + x_35_39 + x_35_40 + x_35_41 + x_35_44 + x_35_45 + x_35_46
   + x_35_47 + x_35_48 + x_35_49 = 0
 c_2_36: - 2 y_36 + x_0_36 + x_1_36 + x_2_36 + x_3_36 + x_6_36 + x_7_36
   + x_8_36 + x_9_36 + x_10_36 + x_13_36 + x_14_36 + x_16_36 + x_17_36
   + x_18_36 + x_22_36 + x_23_36 + x_24_36 + x_25_36 + x_26_36 + x_27_36
   + x_30_36 + x_31_36 + x_34_36 + x_36_37 + x_36_40 + x_36_41 + x_36_42
   + x_36_43 + x_36_44 + x_36_48 + x_36_49 = 0
 c_2_37: - 2 y_37 + x_0_37 + x_1_37 + x_2_37 + x_4_37 + x_5_37 + x_6_37
   + x_7_37 + x_9_37 + x_10_37 + x_11_37 + x_13_37 + x_14_37 + x_15_37
   + x_17_37 + x_19_37 + x_20_37 + x_21_37 + x_22_37 + x_23_37 + x_25_37
   + x_26_37 + x_27_37 + x_28_37 + x_29_37 + x_33_37 + x_34_37 + x_36_37
   + x_37_38 + x_37_39 + x_37_40 + x_37_41 + x_37_42 + x_37_45 + x_37_46
   + x_37_47 + x_37_48 + x_37_49 = 0
 c_2_38: - 2 y_38 + x_1_38 + x_3_38 + x_4_38 + x_7_38 + x_10_38 + x_12_38
   + x_13_38 + x_14_38 + x_15_38 + x_18_38 + x_19_38 + x_20_38 + x_23_38
   + x_24_38 + x_25_38 + x_26_38 + x_27_38 + x_28_38 + x_29_38 + x_30_38
   + x_31_38 + x_32_38 + x_33_38 + x_35_38 + x_37_38 + x_38_41 + x_38_43
   + x_38_44 + x_38_45 + x_38_46 + x_38_47 + x_38_48 = 0
 c_2_39: - 2 y_39 + x_0_39 + x_1_39 + x_2_39 + x_6_39 + x_9_39 + x_13_39
   + x_14_39 + x_15_39 + x_16_39 + x_17_39 + x_19_39 + x_20_39 + x_21_39
   + x_23_39 + x_27_39 + x_28_39 + x_30_39 + x_31_39 + x_32_39 + x_33_39
   + x_34_39 + x_35_39 + x_37_39 + x_39_40 + x_39_42 + x_39_43 + x_39_46
   + x_39_47 + x_39_48 + x_39_49 = 0
 c_2_40: - 2 y_40 + x_1_40 + x_2_40 + x_3_40 + x_4_40 + x_6_40 + x_8_40
   + x_9_40 + x_10_40 + x_11_40 + x_12_40 + x_13_40 + x_14_40 + x_15_40
   + x_16_40 + x_18_40 + x_19_40 + x_20_40 + x_21_40 + x_24_40 + x_25_40
   + x_26_40 + x_27_40 + x_29_40 + x_30_40 + x_31_40 + x_32_40 + x_33_40
   + x_35_40 + x_36_40 + x_37_40 + x_39_40 + x_40_41 + x_40_42 + x_40_43
   + x_40_44 + x_40_48 + x_40_49 = 0
 c_2_41: - 2 y_41 + x_1_41 + x_3_41 + x_4_41 + x_5_41 + x_6_41 + x_7_41
   + x_10_41 + x_11_41 + x_12_41 + x_13_41 + x_14_41 + x_16_41 + x_17_41
   + x_18_41 + x_19_41 + x_20_41 + x_21_41 + x_22_41 + x_23_41 + x_24_41
   + x_25_41 + x_27_41 + x_28_41 + x_29_41 + x_30_41 + x_31_41 + x_32_41
   + x_33_41 + x_34_41 + x_35_41 + x_36_41 + x_37_41 + x_38_41 + x_40_41
   + x_41_43 + x_41_46 + x_41_48 + x_41_49 = 0
 c_2_42: - 2 y_42 + x_0_42 + x_1_42 + x_3_42 + x_4_42 + x_5_42 + x_6_42
   + x_7_42 + x_8_42 + x_10_42 + x_11_42 + x_12_42 + x_16_42 + x_17_42
   + x_18_42 + x_19_42 + x_20_42 + x_21_42 + x_22_42 + x_23_42 + x_24_42
   + x_25_42 + x_26_42 + x_29_42 + x_30_42 + x_32_42 + x_33_42 + x_34_42
   + x_36_42 + x_37_42 + x_39_42 + x_40_42 + x_42_43 + x_42_44 + x_42_46
   + x_42_48 + x_42_49 = 0
 c_2_43: - 2 y_43 + x_1_43 + x_2_43 + x_3_43 + x_4_43 + x_5_43 + x_6_43
   + x_10_43 + x_12_43 + x_13_43 + x_14_43 + x_15_43 + x_22_43 + x_23_43
   + x_26_43 + x_28_43 + x_29_43 + x_30_43 + x_31_43 + x_32_43 + x_33_43
   + x_34_43 + x_36_43 + x_38_43 + x_39_43 + x_40_43 + x_41_43 + x_42_43
   + x_43_44 + x_43_45 + x_43_48 + x_43_49 = 0
 c_2_44: - 2 y_44 + x_0_44 + x_2_44 + x_4_44 + x_6_44 + x_7_44 + x_9_44
   + x_10_44 + x_14_44 + x_15_44 + x_16_44 + x_17_44 + x_20_44 + x_21_44
   + x_22_44 + x_23_44 + x_24_44 + x_25_44 + x_26_44 + x_27_44 + x_28_44
   + x_29_44 + x_31_44 + x_32_44 + x_33_44 + x_34_44 + x_35_44 + x_36_44
   + x_38_44 + x_40_44 + x_42_44 + x_43_44 + x_44_45 + x_44_48 = 0
 c_2_45: - 2 y_45 + x_0_45 + x_2_45 + x_5_45 + x_6_45 + x_7_45 + x_8_45
   + x_10_45 + x_12_45 + x_13_45 + x_15_45 + x_16_45 + x_17_45 + x_19_45
   + x_20_45 + x_22_45 + x_23_45 + x_25_45 + x_26_45 + x_28_45 + x_30_45
   + x_31_45 + x_35_45 + x_37_45 + x_38_45 + x_43_45 + x_44_45 + x_45_46
   + x_45_47 + x_45_48 + x_45_49 = 0
 c_2_46: - 2 y_46 + x_0_46 + x_1_46 + x_2_46 + x_3_46 + x_5_46 + x_6_46
   + x_7_46 + x_8_46 + x_9_46 + x_10_46 + x_12_46 + x_13_46 + x_14_46
   + x_16_46 + x_17_46 + x_18_46 + x_20_46 + x_22_46 + x_23_46 + x_24_46
   + x_25_46 + x_26_46 + x_27_46 + x_28_46 + x_29_46 + x_30_46 + x_32_46
   + x_33_46 + x_34_46 + x_35_46 + x_37_46 + x_38_46 + x_39_46 + x_41_46
   + x_42_46 + x_45_46 + x_46_47 + x_46_48 + x_46_49 = 0
 c_2_47: - 2 y_47 + x_0_47 + x_3_47 + x_4_47 + x_5_47 + x_6_47 + x_8_47
   + x_10_47 + x_14_47 + x_15_47 + x_18_47 + x_19_47 + x_20_47 + x_23_47
   + x_24_47 + x_25_47 + x_26_47 + x_27_47 + x_28_47 + x_29_47 + x_30_47
   + x_32_47 + x_33_47 + x_34_47 + x_35_47 + x_37_47 + x_38_47 + x_39_47
   + x_45_47 + x_46_47 + x_47_48 = 0
 c_2_48: - 2 y_48 + x_3_48 + x_4_48 + x_5_48 + x_6_48 + x_8_48 + x_9_48
   + x_11_48 + x_14_48 + x_15_48 + x_16_48 + x_18_48 + x_19_48 + x_20_48
   + x_21_48 + x_23_48 + x_24_48 + x_25_48 + x_26_48 + x_27_48 + x_28_48
   + x_29_48 + x_31_48 + x_32_48 + x_34_48 + x_35_48 + x_36_48 + x_37_48
   + x_38_48 + x_39_48 + x_40_48 + x_41_48 + x_42_48 + x_43_48 + x_44_48
   + x_45_48 + x_46_48 + x_47_48 = 0
 c_2_49: - 2 y_49 + x_1_49 + x_2_49 + x_3_49 + x_4_49 + x_6_49 + x_8_49
   + x_9_49 + x_11_49 + x_12_49 + x_13_49 + x_14_49 + x_16_49 + x_17_49
   + x_18_49 + x_19_49 + x_20_49 + x_22_49 + x_23_49 + x_25_49 + x_26_49
   + x_27_49 + x_29_49 + x_31_49 + x_32_49 + x_33_49 + x_34_49 + x_35_49
   + x_36_49 + x_37_49 + x_39_49 + x_40_49 + x_41_49 + x_42_49 + x_43_49
   + x_45_49 + x_46_49 = 0
Bounds
 Constant = 1
Binaries
 y_0 y_1 y_2 y_3 y_4 y_5 y_6 y_7 y_8 y_9 y_10 y_11 y_12 y_13 y_14 y_15 y_16
 y_17 y_18 y_19 y_20 y_21 y_22 y_23 y_24 y_25 y_26 y_27 y_28 y_29 y_30 y_31
 y_32 y_33 y_34 y_35 y_36 y_37 y_38 y_39 y_40 y_41 y_42 y_43 y_44 y_45 y_46
 y_47 y_48 y_49 x_0_2 x_0_3 x_0_4 x_0_5 x_0_6 x_0_7 x_0_8 x_0_9 x_0_11
 x_0_12 x_0_13 x_0_14 x_0_15 x_0_16 x_0_18 x_0_19 x_0_20 x_0_21 x_0_22
 x_0_23 x_0_24 x_0_25 x_0_26 x_0_27 x_0_28 x_0_29 x_0_30 x_0_31 x_0_32
 x_0_33 x_0_34 x_0_35 x_0_36 x_0_37 x_0_39 x_0_42 x_0_44 x_0_45 x_0_46
 x_0_47 x_1_2 x_1_3 x_1_7 x_1_8 x_1_9 x_1_10 x_1_13 x_1_14 x_1_15 x_1_16
 x_1_18 x_1_19 x_1_23 x_1_24 x_1_25 x_1_27 x_1_29 x_1_30 x_1_31 x_1_33
 x_1_34 x_1_35 x_1_36 x_1_37 x_1_38 x_1_39 x_1_40 x_1_41 x_1_42 x_1_43
 x_1_46 x_1_49 x_2_3 x_2_5 x_2_6 x_2_7 x_2_8 x_2_9 x_2_10 x_2_11 x_2_12
 x_2_13 x_2_14 x_2_15 x_2_16 x_2_17 x_2_18 x_2_19 x_2_20 x_2_21 x_2_23
 x_2_24 x_2_26 x_2_27 x_2_28 x_2_29 x_2_31 x_2_33 x_2_34 x_2_36 x_2_37
 x_2_39 x_2_40 x_2_43 x_2_44 x_2_45 x_2_46 x_2_49 x_3_4 x_3_5 x_3_6 x_3_7
 x_3_8 x_3_12 x_3_13 x_3_14 x_3_15 x_3_16 x_3_18 x_3_22 x_3_23 x_3_24
 x_3_26 x_3_27 x_3_28 x_3_29 x_3_30 x_3_32 x_3_33 x_3_34 x_3_35 x_3_36
 x_3_38 x_3_40 x_3_41 x_3_42 x_3_43 x_3_46 x_3_47 x_3_48 x_3_49 x_4_5 x_4_6
 x_4_8 x_4_9 x_4_10 x_4_11 x_4_12 x_4_13 x_4_15 x_4_16 x_4_17 x_4_18 x_4_20
 x_4_21 x_4_22 x_4_23 x_4_25 x_4_27 x_4_28 x_4_30 x_4_31 x_4_32 x_4_33
 x_4_34 x_4_35 x_4_37 x_4_38 x_4_40 x_4_41 x_4_42 x_4_43 x_4_44 x_4_47
 x_4_48 x_4_49 x_5_6 x_5_7 x_5_8 x_5_9 x_5_10 x_5_11 x_5_12 x_5_13 x_5_14
 x_5_15 x_5_19 x_5_20 x_5_21 x_5_22 x_5_23 x_5_24 x_5_25 x_5_26 x_5_33
 x_5_34 x_5_35 x_5_37 x_5_41 x_5_42 x_5_43 x_5_45 x_5_46 x_5_47 x_5_48
 x_6_7 x_6_8 x_6_9 x_6_11 x_6_12 x_6_13 x_6_15 x_6_17 x_6_21 x_6_23 x_6_25
 x_6_28 x_6_29 x_6_30 x_6_32 x_6_34 x_6_35 x_6_36 x_6_37 x_6_39 x_6_40
 x_6_41 x_6_42 x_6_43 x_6_44 x_6_45 x_6_46 x_6_47 x_6_48 x_6_49 x_7_9
 x_7_10 x_7_13 x_7_14 x_7_16 x_7_18 x_7_19 x_7_21 x_7_23 x_7_24 x_7_25
 x_7_26 x_7_27 x_7_29 x_7_30 x_7_32 x_7_33 x_7_35 x_7_36 x_7_37 x_7_38
 x_7_41 x_7_42 x_7_44 x_7_45 x_7_46 x_8_10 x_8_12 x_8_13 x_8_14 x_8_15
 x_8_16 x_8_17 x_8_20 x_8_21 x_8_23 x_8_24 x_8_25 x_8_26 x_8_27 x_8_28
 x_8_29 x_8_31 x_8_32 x_8_33 x_8_34 x_8_36 x_8_40 x_8_42 x_8_45 x_8_46
 x_8_47 x_8_48 x_8_49 x_9_10 x_9_12 x_9_13 x_9_16 x_9_17 x_9_18 x_9_21
 x_9_23 x_9_29 x_9_30 x_9_32 x_9_33 x_9_34 x_9_35 x_9_36 x_9_37 x_9_39
 x_9_40 x_9_44 x_9_46 x_9_48 x_9_49 x_10_11 x_10_13 x_10_15 x_10_16 x_10_17
 x_10_19 x_10_20 x_10_21 x_10_23 x_10_24 x_10_26 x_10_27 x_10_28 x_10_29
 x_10_31 x_10_32 x_10_33 x_10_35 x_10_36 x_10_37 x_10_38 x_10_40 x_10_41
 x_10_42 x_10_43 x_10_44 x_10_45 x_10_46 x_10_47 x_11_14 x_11_15 x_11_17
 x_11_18 x_11_19 x_11_20 x_11_21 x_11_26 x_11_29 x_11_30 x_11_31 x_11_33
 x_11_37 x_11_40 x_11_41 x_11_42 x_11_48 x_11_49 x_12_13 x_12_14 x_12_15
 x_12_17 x_12_19 x_12_20 x_12_21 x_12_23 x_12_24 x_12_26 x_12_27 x_12_28
 x_12_29 x_12_31 x_12_32 x_12_35 x_12_38 x_12_40 x_12_41 x_12_42 x_12_43
 x_12_45 x_12_46 x_12_49 x_13_16 x_13_17 x_13_18 x_13_20 x_13_21 x_13_22
 x_13_25 x_13_26 x_13_27 x_13_28 x_13_29 x_13_31 x_13_32 x_13_33 x_13_34
 x_13_35 x_13_36 x_13_37 x_13_38 x_13_39 x_13_40 x_13_41 x_13_43 x_13_45
 x_13_46 x_13_49 x_14_16 x_14_18 x_14_19 x_14_21 x_14_23 x_14_24 x_14_25
 x_14_26 x_14_27 x_14_28 x_14_29 x_14_30 x_14_31 x_14_32 x_14_33 x_14_35
 x_14_36 x_14_37 x_14_38 x_14_39 x_14_40 x_14_41 x_14_43 x_14_44 x_14_46
 x_14_47 x_14_48 x_14_49 x_15_16 x_15_17 x_15_18 x_15_19 x_15_20 x_15_22
 x_15_23 x_15_24 x_15_26 x_15_28 x_15_29 x_15_31 x_15_33 x_15_34 x_15_35
 x_15_37 x_15_38 x_15_39 x_15_40 x_15_43 x_15_44 x_15_45 x_15_47 x_15_48
 x_16_20 x_16_21 x_16_22 x_16_23 x_16_24 x_16_25 x_16_27 x_16_28 x_16_29
 x_16_30 x_16_31 x_16_32 x_16_33 x_16_34 x_16_35 x_16_36 x_16_39 x_16_40
 x_16_41 x_16_42 x_16_44 x_16_45 x_16_46 x_16_48 x_16_49 x_17_18 x_17_19
 x_17_20 x_17_21 x_17_22 x_17_23 x_17_25 x_17_28 x_17_30 x_17_31 x_17_32
 x_17_34 x_17_36 x_17_37 x_17_39 x_17_41 x_17_42 x_17_44 x_17_45 x_17_46
 x_17_49 x_18_20 x_18_21 x_18_22 x_18_23 x_18_24 x_18_26 x_18_28 x_18_30
 x_18_32 x_18_33 x_18_35 x_18_36 x_18_38 x_18_40 x_18_41 x_18_42 x_18_46
 x_18_47 x_18_48 x_18_49 x_19_21 x_19_22 x_19_23 x_19_25 x_19_26 x_19_27
 x_19_28 x_19_33 x_19_34 x_19_37 x_19_38 x_19_39 x_19_40 x_19_41 x_19_42
 x_19_45 x_19_47 x_19_48 x_19_49 x_20_21 x_20_22 x_20_23 x_20_25 x_20_26
 x_20_27 x_20_28 x_20_29 x_20_30 x_20_31 x_20_33 x_20_35 x_20_37 x_20_38
 x_20_39 x_20_40 x_20_41 x_20_42 x_20_44 x_20_45 x_20_46 x_20_47 x_20_48
 x_20_49 x_21_22 x_21_24 x_21_25 x_21_27 x_21_28 x_21_30 x_21_31 x_21_34
 x_21_35 x_21_37 x_21_39 x_21_40 x_21_41 x_21_42 x_21_44 x_21_48 x_22_23
 x_22_24 x_22_26 x_22_27 x_22_29 x_22_31 x_22_33 x_22_34 x_22_36 x_22_37
 x_22_41 x_22_42 x_22_43 x_22_44 x_22_45 x_22_46 x_22_49 x_23_25 x_23_31
 x_23_32 x_23_33 x_23_35 x_23_36 x_23_37 x_23_38 x_23_39 x_23_41 x_23_42
 x_23_43 x_23_44 x_23_45 x_23_46 x_23_47 x_23_48 x_23_49 x_24_25 x_24_26
 x_24_28 x_24_29 x_24_30 x_24_32 x_24_33 x_24_34 x_24_35 x_24_36 x_24_38
 x_24_40 x_24_41 x_24_42 x_24_44 x_24_46 x_24_47 x_24_48 x_25_26 x_25_27
 x_25_28 x_25_29 x_25_30 x_25_32 x_25_34 x_25_35 x_25_36 x_25_37 x_25_38
 x_25_40 x_25_41 x_25_42 x_25_44 x_25_45 x_25_46 x_25_47 x_25_48 x_25_49
 x_26_27 x_26_28 x_26_29 x_26_32 x_26_33 x_26_35 x_26_36 x_26_37 x_26_38
 x_26_40 x_26_42 x_26_43 x_26_44 x_26_45 x_26_46 x_26_47 x_26_48 x_26_49
 x_27_28 x_27_29 x_27_30 x_27_34 x_27_35 x_27_36 x_27_37 x_27_38 x_27_39
 x_27_40 x_27_41 x_27_44 x_27_46 x_27_47 x_27_48 x_27_49 x_28_30 x_28_32
 x_28_33 x_28_34 x_28_35 x_28_37 x_28_38 x_28_39 x_28_41 x_28_43 x_28_44
 x_28_45 x_28_46 x_28_47 x_28_48 x_29_32 x_29_34 x_29_35 x_29_37 x_29_38
 x_29_40 x_29_41 x_29_42 x_29_43 x_29_44 x_29_46 x_29_47 x_29_48 x_29_49
 x_30_31 x_30_32 x_30_33 x_30_34 x_30_36 x_30_38 x_30_39 x_30_40 x_30_41
 x_30_42 x_30_43 x_30_45 x_30_46 x_30_47 x_31_32 x_31_33 x_31_34 x_31_36
 x_31_38 x_31_39 x_31_40 x_31_41 x_31_43 x_31_44 x_31_45 x_31_48 x_31_49
 x_32_33 x_32_34 x_32_35 x_32_38 x_32_39 x_32_40 x_32_41 x_32_42 x_32_43
 x_32_44 x_32_46 x_32_47 x_32_48 x_32_49 x_33_34 x_33_35 x_33_37 x_33_38
 x_33_39 x_33_40 x_33_41 x_33_42 x_33_43 x_33_44 x_33_46 x_33_47 x_33_49
 x_34_35 x_34_36 x_34_37 x_34_39 x_34_41 x_34_42 x_34_43 x_34_44 x_34_46
 x_34_47 x_34_48 x_34_49 x_35_38 x_35_39 x_35_40 x_35_41 x_35_44 x_35_45
 x_35_46 x_35_47 x_35_48 x_35_49 x_36_37 x_36_40 x_36_41 x_36_42 x_36_43
 x_36_44 x_36_48 x_36_49 x_37_38 x_37_39 x_37_40 x_37_41 x_37_42 x_37_45
 x_37_46 x_37_47 x_37_48 x_37_49 x_38_41 x_38_43 x_38_44 x_38_45 x_38_46
 x_38_47 x_38_48 x_39_40 x_39_42 x_39_43 x_39_46 x_39_47 x_39_48 x_39_49
 x_40_41 x_40_42 x_40_43 x_40_44 x_40_48 x_40_49 x_41_43 x_41_46 x_41_48
 x_41_49 x_42_43 x_42_44 x_42_46 x_42_48 x_42_49 x_43_44 x_43_45 x_43_48
 x_43_49 x_44_45 x_44_48 x_45_46 x_45_47 x_45_48 x_45_49 x_46_47 x_46_48
 x_46_49 x_47_48
End
